p edge 21 37
e 1 6
e 1 16
e 1 17
e 1 19
e 2 6
e 2 8
e 2 12
e 2 18
e 2 21
e 3 16
e 4 7
e 4 15
e 5 6
e 5 12
e 5 14
e 6 7
e 6 10
e 6 14
e 6 17
e 6 20
e 8 11
e 8 15
e 8 17
e 8 19
e 9 14
e 11 14
e 11 15
e 12 20
e 12 21
e 13 17
e 13 20
e 15 17
e 15 19
e 16 21
e 17 20
e 17 21
e 18 20
